\* 3Node_MultiCommodity_AvgDelay *\
Minimize
OBJ: 0.1 z12 + 0.1 z13 + 0.0666666666667 z23
Subject To
_C1: x12 + x132 = 5
_C10: - 9 y12 + 2 z12 >= -20
_C11: - 9 y13 + 2 z13 >= -20
_C12: - 9 y23 + 2 z23 >= -30
_C13: - 15 y12 + z12 >= -80
_C14: - 15 y13 + z13 >= -80
_C15: - 15 y23 + z23 >= -120
_C16: - 50 y12 + z12 >= -360
_C17: - 50 y13 + z13 >= -360
_C18: - 50 y23 + z23 >= -540
_C19: - 200 y12 + z12 >= -1710
_C2: x123 + x13 = 10
_C20: - 200 y13 + z13 >= -1710
_C21: - 200 y23 + z23 >= -2565
_C22: - 4000 y12 + z12 >= -37810
_C23: - 4000 y13 + z13 >= -37810
_C24: - 4000 y23 + z23 >= -56715
_C3: x213 + x23 = 7
_C4: x12 + x123 + x213 - y12 = 0
_C5: x13 + x132 + x213 - y13 = 0
_C6: 2 x123 + x23 - y23 = 0
_C7: - 3 y12 + 2 z12 >= 0
_C8: - 3 y13 + 2 z13 >= 0
_C9: - 3 y23 + 2 z23 >= 0
End
